proyfinal/src/viki/013/experimentInOfficeAgust.take6.output/ab89e9fe-7ec7-41a8-b20c-06f45ca3cfdd.als.dat
{'cnf.clauses': '118081',
 'cnf.totvars': '69608',
 'conflict literals': '31',
 'conflicts': '15',
 'decisions': '5604',
 'memused.mb': '15.92',
 'outcome': 'UNSAT',
 'propagations': '28937',
 'restarts': '1',
 'solver.msecs': 34,
 'task.msecs': 146}
