proyfinal/src/viki/013/experimentInOfficeAgust.take6.output/ab89e9fe-7ec7-41a8-b20c-06f45ca3cfdd.als.out
Reading from standard input... Use '--help' for help.
============================[ Problem Statistics ]=============================
|                                                                             |
|  Number of variables:         69608                                         |
|  Number of clauses:          118081                                         |
|  Parse time:                   0.02 s                                       |
|                                                                             |
============================[ Search Statistics ]==============================
| Conflicts |          ORIGINAL         |          LEARNT          | Progress |
|           |    Vars  Clauses Literals |    Limit  Clauses Lit/Cl |          |
===============================================================================
===============================================================================
restarts              : 1
conflicts             : 15             (432 /sec)
decisions             : 5604           (0.00 % random) (161471 /sec)
propagations          : 28937          (833775 /sec)
conflict literals     : 31             (0.00 % deleted)
Memory used           : 15.92 MB
CPU time              : 0.034706 s

UNSATISFIABLE
